227,175
225,554
1006,457
874,140
561,36
782,93
847,-107
885,6
690,378
745,605
871,596
773,691
448,639
453,332
539,360
1041,406
1194,240
618,469
629,478
630,731
532,700
657,389
539,360
847,-107
885,6
910,91
874,140
803,646
690,378
470,115
227,175
540,212
494,311
718,292
1162,161
